proyfinal/src/viki/013/experimentInOfficeAgust.take6.output/a5137fa9-3f08-46e7-b17d-aefc14aca769.als.out
Reading from standard input... Use '--help' for help.
============================[ Problem Statistics ]=============================
|                                                                             |
|  Number of variables:         87638                                         |
|  Number of clauses:          161767                                         |
|  Parse time:                   0.03 s                                       |
|                                                                             |
============================[ Search Statistics ]==============================
| Conflicts |          ORIGINAL         |          LEARNT          | Progress |
|           |    Vars  Clauses Literals |    Limit  Clauses Lit/Cl |          |
===============================================================================
|       100 |   63871   110542   276074 |    40532      100     37 | 27.120 % |
|       250 |   55184    84632   212329 |    44585      247     73 | 37.032 % |
|       475 |   55184    84632   212329 |    49043      472     59 | 37.032 % |
|       812 |   54901    83893   210332 |    53948      805     55 | 37.355 % |
|      1318 |   54832    83722   209925 |    59342     1297     63 | 37.434 % |
|      2077 |   54554    82693   207336 |    65277     2008     65 | 37.751 % |
|      3216 |   54469    82359   206558 |    71805     3064     84 | 37.848 % |
|      4924 |   53983    80579   202264 |    78985     4657     83 | 38.402 % |
|      7486 |   53350    78348   196775 |    86884     6719     78 | 39.125 % |
|     11330 |   53205    77725   195299 |    95572    10386     80 | 39.290 % |
|     17096 |   52882    76273   191862 |   105129    14861     75 | 39.659 % |
===============================================================================
restarts              : 78
conflicts             : 21759          (7587 /sec)
decisions             : 74668          (0.00 % random) (26034 /sec)
propagations          : 28692238       (10003939 /sec)
conflict literals     : 1505161        (44.73 % deleted)
Memory used           : 41.42 MB
CPU time              : 2.86809 s

UNSATISFIABLE
